c WARNING: for repeatability, setting FPU to use double precision
d VARIABLES            26433        
d CONSTRAINTS          94512        
c ============================[ Problem Statistics ]=============================
c |                                                                             |
c |  Number of variables:         26433                                         |
c |  Number of clauses:           94512                                         |
c |  Parse time:                   0.02 s                                       |
c |                                                                             |
c ============================[ Search Statistics ]==============================
c | Conflicts |          ORIGINAL         |          LEARNT          | Progress |
c |           |    Vars  Clauses Literals |    Limit  Clauses Lit/Cl |          |
c ===============================================================================
c |       100 |   16297    67314   165650 |    24681      100     53 | 38.346 % |
c |       250 |   16297    67314   165650 |    27149      250     60 | 38.346 % |
c |       475 |   16297    67314   165650 |    29864      475     63 | 38.346 % |
c |       812 |   16297    67314   165650 |    32851      812     74 | 38.346 % |
c |      1318 |   16297    67314   165650 |    36136     1318     81 | 38.346 % |
c |      2077 |   16297    67314   165650 |    39750     2077     86 | 38.346 % |
c |      3216 |   16297    67314   165650 |    43725     3216     98 | 38.346 % |
c |      4924 |   16297    67314   165650 |    48097     4924     89 | 38.346 % |
c |      7486 |   16297    67314   165650 |    52907     7486     93 | 38.346 % |
c |     11330 |   16297    67314   165650 |    58198    11330     82 | 38.346 % |
c |     17096 |   16297    67314   165650 |    64018    17096     65 | 38.346 % |
c |     25745 |   16297    67314   165650 |    70420    25745     62 | 38.346 % |
c |     38719 |   16297    67314   165650 |    77462    38719     63 | 38.346 % |
c |     58180 |   16297    67314   165650 |    85208    58180     63 | 38.346 % |
c |     87372 |   16297    67314   165650 |    93729    87372     59 | 38.346 % |
c |    131161 |   16297    67314   165650 |   103102    46810     56 | 38.346 % |
c |    196845 |   16297    67314   165650 |   113412   112494     55 | 38.346 % |
c ===============================================================================
c restarts              : 550
c conflicts             : 240173         (4843 /sec)
c decisions             : 361814         (0.00 % random) (7295 /sec)
c propagations          : 163213233      (3290915 /sec)
c conflict literals     : 13307933       (56.54 % deleted)
d RESTARTS             550
d FAILURES             240173       
d NODES                361814       
d BACKTRACKS           361814       
d PROPAGATIONS         163213233    
d NOGOODSIZE           55.41 
d MEMORY               58.00 
d TIME                 49.5951 

s UNSATISFIABLE
